unsat
(forall ((A (_ BitVec 20))
         (B (_ BitVec 20))
         (C (_ BitVec 20))
         (D (_ BitVec 20))
         (E (_ BitVec 20))
         (F (_ BitVec 20))
         (G (_ BitVec 20))
         (H (_ BitVec 20))
         (I (_ BitVec 20))
         (J (_ BitVec 20))
         (K (_ BitVec 20))
         (L (_ BitVec 20))
         (M (_ BitVec 20))
         (N (_ BitVec 14))
         (O (_ BitVec 20))
         (P (_ BitVec 20))
         (Q (_ BitVec 20))
         (R (_ BitVec 1))
         (S (_ BitVec 20))
         (T (_ BitVec 20))
         (U (_ BitVec 20))
         (V (_ BitVec 20))
         (W (_ BitVec 20))
         (X (_ BitVec 38))
         (Y (_ BitVec 20))
         (Z (_ BitVec 20))
         (A1 (_ BitVec 18))
         (B1 (_ BitVec 20))
         (C1 (_ BitVec 22))
         (D1 (_ BitVec 20))
         (E1 (_ BitVec 20))
         (F1 (_ BitVec 1))
         (G1 (_ BitVec 1))
         (H1 (_ BitVec 1))
         (I1 (_ BitVec 20))
         (J1 (_ BitVec 20))
         (K1 (_ BitVec 20))
         (L1 (_ BitVec 20))
         (M1 (_ BitVec 1))
         (N1 (_ BitVec 20))
         (O1 (_ BitVec 20))
         (P1 (_ BitVec 38))
         (Q1 (_ BitVec 20))
         (R1 (_ BitVec 1))
         (S1 (_ BitVec 20))
         (T1 (_ BitVec 20))
         (U1 (_ BitVec 20))
         (V1 (_ BitVec 18))
         (W1 (_ BitVec 22))
         (X1 (_ BitVec 20))
         (Y1 (_ BitVec 20))
         (Z1 (_ BitVec 20))
         (A2 (_ BitVec 1))
         (B2 (_ BitVec 20))
         (C2 (_ BitVec 20))
         (D2 (_ BitVec 20))
         (E2 (_ BitVec 20))
         (F2 (_ BitVec 18))
         (G2 (_ BitVec 20))
         (H2 (_ BitVec 22))
         (I2 (_ BitVec 1))
         (J2 (_ BitVec 14))
         (K2 (_ BitVec 1))
         (L2 (_ BitVec 38))
         (M2 (_ BitVec 20))
         (N2 (_ BitVec 16))
         (O2 (_ BitVec 38))
         (P2 (_ BitVec 30))
         (Q2 (_ BitVec 30))
         (R2 (_ BitVec 20))
         (S2 (_ BitVec 1))
         (T2 (_ BitVec 20))
         (U2 (_ BitVec 20))
         (V2 (_ BitVec 20))
         (W2 (_ BitVec 20))
         (X2 (_ BitVec 16))
         (Y2 (_ BitVec 20))
         (Z2 (_ BitVec 30))
         (A3 (_ BitVec 1))
         (B3 (_ BitVec 38))
         (C3 (_ BitVec 30)))
  (! (let ((a!1 (or ((_ bit2bool 0) N1)
                    (= ((_ extract 0 0) O) #b1)
                    (not (= ((_ extract 0 0) K) #b1))))
           (a!2 (or ((_ bit2bool 2) N1)
                    ((_ bit2bool 0) N1)
                    (not (= ((_ extract 1 1) K) #b1))
                    (= ((_ extract 1 1) O) #b1)
                    (= ((_ extract 1 1) N1) #b1)))
           (a!3 ((_ extract 22 2)
                  (bvadd (concat #b000 ((_ extract 21 2) H2)) (concat #b0 C1))))
           (a!4 (or (not (= Z #x00000))
                    (= ((_ extract 37 4) X)
                       (bvmul #b1111111111111111111111111111111111
                              (concat #x000 W1)))))
           (a!5 (or (not (= G2 #x00000))
                    (= ((_ extract 3 2) H2) (bvmul #b11 ((_ extract 1 0) C1))))))
     (let ((a!6 (and (or (= P1 #b00000000000000000000000000000000000000)
                         (not (= S1 #x00000)))
                     (not ((_ bit2bool 1) N))
                     (not ((_ bit2bool 0) N))
                     (or (not (= A2 #b0)) (not ((_ bit2bool 0) G1)))
                     (or ((_ bit2bool 0) F2)
                         ((_ bit2bool 0) V1)
                         (not ((_ bit2bool 0) A1)))
                     (not (= ((_ extract 17 17) V1) #b1))
                     (not (= ((_ extract 17 17) A1) #b1))
                     (not (= ((_ extract 17 17) F2) #b1))
                     a!1
                     a!2
                     (or (not (= O #x00000))
                         ((_ bit2bool 1) K)
                         (not ((_ bit2bool 1) N1)))
                     (or ((_ bit2bool 2) H2)
                         ((_ bit2bool 3) H2)
                         (= a!3 #b000000000000000000000)
                         (= ((_ extract 2 2) G2) #b1))
                     (or (not (= G2 #x00000)) (= a!3 #b000000000000000000000))
                     a!4
                     (or (not (= G2 #x00000)) (= ((_ extract 1 0) H2) #b00))
                     a!5
                     (or (not (= Z #x00000)) (= ((_ extract 3 0) X) #x0)))))
       (= (INV!slice!1 A
                       B
                       C
                       D
                       E
                       F
                       G
                       H
                       I
                       J
                       K
                       L
                       M
                       N
                       O
                       P
                       Q
                       R
                       S
                       T
                       U
                       V
                       W
                       X
                       Y
                       Z
                       A1
                       B1
                       C1
                       D1
                       E1
                       F1
                       G1
                       H1
                       I1
                       J1
                       K1
                       L1
                       M1
                       N1
                       O1
                       P1
                       Q1
                       R1
                       S1
                       T1
                       U1
                       V1
                       W1
                       X1
                       Y1
                       Z1
                       A2
                       B2
                       C2
                       D2
                       E2
                       F2
                       G2
                       H2
                       I2
                       J2
                       K2
                       L2
                       M2
                       N2
                       O2
                       P2
                       Q2
                       R2
                       S2
                       T2
                       U2
                       V2
                       W2
                       X2
                       Y2
                       Z2
                       A3
                       B3
                       C3)
          a!6)))
     :weight 0))
